c CNF file corresponding to a (partial) station packing problem.
p cnf 4813 213
1 2 3 4 5 6 7 8 9 10 11 12 13 14 0
-1 -2 0
-1 -3 0
-1 -4 0
-1 -5 0
-1 -6 0
-1 -7 0
-1 -8 0
-1 -9 0
-1 -10 0
-1 -11 0
-1 -12 0
-1 -13 0
-1 -14 0
-2 -3 0
-2 -4 0
-2 -5 0
-2 -6 0
-2 -7 0
-2 -8 0
-2 -9 0
-2 -10 0
-2 -11 0
-2 -12 0
-2 -13 0
-2 -14 0
-3 -4 0
-3 -5 0
-3 -6 0
-3 -7 0
-3 -8 0
-3 -9 0
-3 -10 0
-3 -11 0
-3 -12 0
-3 -13 0
-3 -14 0
-4 -5 0
-4 -6 0
-4 -7 0
-4 -8 0
-4 -9 0
-4 -10 0
-4 -11 0
-4 -12 0
-4 -13 0
-4 -14 0
-5 -6 0
-5 -7 0
-5 -8 0
-5 -9 0
-5 -10 0
-5 -11 0
-5 -12 0
-5 -13 0
-5 -14 0
-6 -7 0
-6 -8 0
-6 -9 0
-6 -10 0
-6 -11 0
-6 -12 0
-6 -13 0
-6 -14 0
-7 -8 0
-7 -9 0
-7 -10 0
-7 -11 0
-7 -12 0
-7 -13 0
-7 -14 0
-8 -9 0
-8 -10 0
-8 -11 0
-8 -12 0
-8 -13 0
-8 -14 0
-9 -10 0
-9 -11 0
-9 -12 0
-9 -13 0
-9 -14 0
-10 -11 0
-10 -12 0
-10 -13 0
-10 -14 0
-11 -12 0
-11 -13 0
-11 -14 0
-12 -13 0
-12 -14 0
-13 -14 0
4798 4799 4800 4801 4802 4803 4804 4805 4806 4807 4808 4809 4810 4811 4812 4813 0
-4798 -4799 0
-4798 -4800 0
-4798 -4801 0
-4798 -4802 0
-4798 -4803 0
-4798 -4804 0
-4798 -4805 0
-4798 -4806 0
-4798 -4807 0
-4798 -4808 0
-4798 -4809 0
-4798 -4810 0
-4798 -4811 0
-4798 -4812 0
-4798 -4813 0
-4799 -4800 0
-4799 -4801 0
-4799 -4802 0
-4799 -4803 0
-4799 -4804 0
-4799 -4805 0
-4799 -4806 0
-4799 -4807 0
-4799 -4808 0
-4799 -4809 0
-4799 -4810 0
-4799 -4811 0
-4799 -4812 0
-4799 -4813 0
-4800 -4801 0
-4800 -4802 0
-4800 -4803 0
-4800 -4804 0
-4800 -4805 0
-4800 -4806 0
-4800 -4807 0
-4800 -4808 0
-4800 -4809 0
-4800 -4810 0
-4800 -4811 0
-4800 -4812 0
-4800 -4813 0
-4801 -4802 0
-4801 -4803 0
-4801 -4804 0
-4801 -4805 0
-4801 -4806 0
-4801 -4807 0
-4801 -4808 0
-4801 -4809 0
-4801 -4810 0
-4801 -4811 0
-4801 -4812 0
-4801 -4813 0
-4802 -4803 0
-4802 -4804 0
-4802 -4805 0
-4802 -4806 0
-4802 -4807 0
-4802 -4808 0
-4802 -4809 0
-4802 -4810 0
-4802 -4811 0
-4802 -4812 0
-4802 -4813 0
-4803 -4804 0
-4803 -4805 0
-4803 -4806 0
-4803 -4807 0
-4803 -4808 0
-4803 -4809 0
-4803 -4810 0
-4803 -4811 0
-4803 -4812 0
-4803 -4813 0
-4804 -4805 0
-4804 -4806 0
-4804 -4807 0
-4804 -4808 0
-4804 -4809 0
-4804 -4810 0
-4804 -4811 0
-4804 -4812 0
-4804 -4813 0
-4805 -4806 0
-4805 -4807 0
-4805 -4808 0
-4805 -4809 0
-4805 -4810 0
-4805 -4811 0
-4805 -4812 0
-4805 -4813 0
-4806 -4807 0
-4806 -4808 0
-4806 -4809 0
-4806 -4810 0
-4806 -4811 0
-4806 -4812 0
-4806 -4813 0
-4807 -4808 0
-4807 -4809 0
-4807 -4810 0
-4807 -4811 0
-4807 -4812 0
-4807 -4813 0
-4808 -4809 0
-4808 -4810 0
-4808 -4811 0
-4808 -4812 0
-4808 -4813 0
-4809 -4810 0
-4809 -4811 0
-4809 -4812 0
-4809 -4813 0
-4810 -4811 0
-4810 -4812 0
-4810 -4813 0
-4811 -4812 0
-4811 -4813 0
-4812 -4813 0
